<?xml version="1.0" encoding="UTF-8"?><osil xmlns="os.optimizationservices.org"   xmlns:xsi="http://www.w3.org/2001/XMLSchema-instance" xsi:schemaLocation="os.optimizationservices.org http://www.optimizationservices.org/schemas/2.0/OSiL.xsd" ><instanceHeader><name>q_40_0_50_3</name></instanceHeader><instanceData><variables numberOfVariables="40"><var name="x1" ub="1"/><var name="x2" ub="1"/><var name="x3" ub="1"/><var name="x4" ub="1"/><var name="x5" ub="1"/><var name="x6" ub="1"/><var name="x7" ub="1"/><var name="x8" ub="1"/><var name="x9" ub="1"/><var name="x10" ub="1"/><var name="x11" ub="1"/><var name="x12" ub="1"/><var name="x13" ub="1"/><var name="x14" ub="1"/><var name="x15" ub="1"/><var name="x16" ub="1"/><var name="x17" ub="1"/><var name="x18" ub="1"/><var name="x19" ub="1"/><var name="x20" ub="1"/><var name="x21" ub="1"/><var name="x22" ub="1"/><var name="x23" ub="1"/><var name="x24" ub="1"/><var name="x25" ub="1"/><var name="x26" ub="1"/><var name="x27" ub="1"/><var name="x28" ub="1"/><var name="x29" ub="1"/><var name="x30" ub="1"/><var name="x31" ub="1"/><var name="x32" ub="1"/><var name="x33" ub="1"/><var name="x34" ub="1"/><var name="x35" ub="1"/><var name="x36" ub="1"/><var name="x37" ub="1"/><var name="x38" ub="1"/><var name="x39" ub="1"/><var name="x40" ub="1"/></variables><objectives numberOfObjectives="1"><obj maxOrMin="min" name="defObj_x41" numberOfObjCoef="40"><coef idx="0">-.1732</coef><coef idx="1">-.5746</coef><coef idx="2">-.8154</coef><coef idx="3">3.32e-2</coef><coef idx="4">.8464</coef><coef idx="5">.2321</coef><coef idx="6">.1058</coef><coef idx="7">.3724</coef><coef idx="8">-.9464</coef><coef idx="9">.3459</coef><coef idx="10">.7226</coef><coef idx="11">9.11e-2</coef><coef idx="12">-.4963</coef><coef idx="13">6.26e-2</coef><coef idx="14">.5102</coef><coef idx="15">-.7809</coef><coef idx="16">.7536</coef><coef idx="17">.9156</coef><coef idx="18">.3758</coef><coef idx="19">-.4219</coef><coef idx="20">.9704</coef><coef idx="21">.8786</coef><coef idx="22">-.1748</coef><coef idx="23">.3636</coef><coef idx="24">.5611</coef><coef idx="25">-.6864</coef><coef idx="26">-.6197</coef><coef idx="27">3.11e-2</coef><coef idx="28">9.41e-2</coef><coef idx="29">.8993</coef><coef idx="30">-.1265</coef><coef idx="31">.4032</coef><coef idx="32">.3305</coef><coef idx="33">-.2215</coef><coef idx="34">-.7071</coef><coef idx="35">.836</coef><coef idx="36">-.6945</coef><coef idx="37">.7322</coef><coef idx="38">.6089</coef><coef idx="39">-.1201</coef></obj></objectives><quadraticCoefficients  numberOfQuadraticTerms="410" ><qTerm  idx="-1"  idxOne="0"  idxTwo="2"  coef=".7627"/><qTerm  idx="-1"  idxOne="0"  idxTwo="3"  coef="-.7615"/><qTerm  idx="-1"  idxOne="0"  idxTwo="5"  coef="-.206"/><qTerm  idx="-1"  idxOne="0"  idxTwo="6"  coef=".7066"/><qTerm  idx="-1"  idxOne="0"  idxTwo="9"  coef="-1.61"/><qTerm  idx="-1"  idxOne="0"  idxTwo="11"  coef="-.1374"/><qTerm  idx="-1"  idxOne="0"  idxTwo="16"  coef=".1267"/><qTerm  idx="-1"  idxOne="0"  idxTwo="20"  coef="1.2314"/><qTerm  idx="-1"  idxOne="0"  idxTwo="26"  coef="-.5898"/><qTerm  idx="-1"  idxOne="0"  idxTwo="33"  coef="-1.8803"/><qTerm  idx="-1"  idxOne="0"  idxTwo="35"  coef="-1.1351"/><qTerm  idx="-1"  idxOne="0"  idxTwo="36"  coef="1.0666"/><qTerm  idx="-1"  idxOne="1"  idxTwo="1"  coef="1.1698"/><qTerm  idx="-1"  idxOne="1"  idxTwo="5"  coef=".8783"/><qTerm  idx="-1"  idxOne="1"  idxTwo="6"  coef="-1.7345"/><qTerm  idx="-1"  idxOne="1"  idxTwo="7"  coef="-.4996"/><qTerm  idx="-1"  idxOne="1"  idxTwo="9"  coef="-1.262"/><qTerm  idx="-1"  idxOne="1"  idxTwo="10"  coef="-.8975"/><qTerm  idx="-1"  idxOne="1"  idxTwo="12"  coef=".3489"/><qTerm  idx="-1"  idxOne="1"  idxTwo="13"  coef=".4426"/><qTerm  idx="-1"  idxOne="1"  idxTwo="16"  coef="-.107"/><qTerm  idx="-1"  idxOne="1"  idxTwo="17"  coef="-1.1802"/><qTerm  idx="-1"  idxOne="1"  idxTwo="18"  coef="1.6251"/><qTerm  idx="-1"  idxOne="1"  idxTwo="21"  coef="-1.0334"/><qTerm  idx="-1"  idxOne="1"  idxTwo="23"  coef="1.925"/><qTerm  idx="-1"  idxOne="1"  idxTwo="24"  coef="1.8798"/><qTerm  idx="-1"  idxOne="1"  idxTwo="25"  coef="-1.9163"/><qTerm  idx="-1"  idxOne="1"  idxTwo="29"  coef="-.8814"/><qTerm  idx="-1"  idxOne="1"  idxTwo="31"  coef="6.69e-2"/><qTerm  idx="-1"  idxOne="1"  idxTwo="32"  coef="-1.0061"/><qTerm  idx="-1"  idxOne="1"  idxTwo="33"  coef="-.8127"/><qTerm  idx="-1"  idxOne="1"  idxTwo="34"  coef="-.7927"/><qTerm  idx="-1"  idxOne="1"  idxTwo="35"  coef="1.3534"/><qTerm  idx="-1"  idxOne="1"  idxTwo="37"  coef="-1.0608"/><qTerm  idx="-1"  idxOne="1"  idxTwo="38"  coef=".3455"/><qTerm  idx="-1"  idxOne="2"  idxTwo="2"  coef=".2766"/><qTerm  idx="-1"  idxOne="2"  idxTwo="4"  coef="1.872"/><qTerm  idx="-1"  idxOne="2"  idxTwo="8"  coef="1.8903"/><qTerm  idx="-1"  idxOne="2"  idxTwo="14"  coef="-.5618"/><qTerm  idx="-1"  idxOne="2"  idxTwo="15"  coef="-1.3926"/><qTerm  idx="-1"  idxOne="2"  idxTwo="17"  coef="1.798"/><qTerm  idx="-1"  idxOne="2"  idxTwo="18"  coef="-1.2236"/><qTerm  idx="-1"  idxOne="2"  idxTwo="19"  coef="1.9218"/><qTerm  idx="-1"  idxOne="2"  idxTwo="20"  coef="-1.2844"/><qTerm  idx="-1"  idxOne="2"  idxTwo="21"  coef="-1.9296"/><qTerm  idx="-1"  idxOne="2"  idxTwo="22"  coef="-1.1147"/><qTerm  idx="-1"  idxOne="2"  idxTwo="28"  coef=".5478"/><qTerm  idx="-1"  idxOne="2"  idxTwo="31"  coef="-1.5141"/><qTerm  idx="-1"  idxOne="2"  idxTwo="33"  coef="1.504"/><qTerm  idx="-1"  idxOne="2"  idxTwo="34"  coef="-5.74e-2"/><qTerm  idx="-1"  idxOne="2"  idxTwo="39"  coef="-1.2634"/><qTerm  idx="-1"  idxOne="3"  idxTwo="4"  coef="-1.8923"/><qTerm  idx="-1"  idxOne="3"  idxTwo="8"  coef="-1.9323"/><qTerm  idx="-1"  idxOne="3"  idxTwo="10"  coef="1.5741"/><qTerm  idx="-1"  idxOne="3"  idxTwo="11"  coef="-.8495"/><qTerm  idx="-1"  idxOne="3"  idxTwo="12"  coef="1.5468"/><qTerm  idx="-1"  idxOne="3"  idxTwo="13"  coef="-.6538"/><qTerm  idx="-1"  idxOne="3"  idxTwo="14"  coef="-1.5817"/><qTerm  idx="-1"  idxOne="3"  idxTwo="18"  coef="-.8187"/><qTerm  idx="-1"  idxOne="3"  idxTwo="22"  coef=".4628"/><qTerm  idx="-1"  idxOne="3"  idxTwo="23"  coef="-.9289"/><qTerm  idx="-1"  idxOne="3"  idxTwo="24"  coef="1.5058"/><qTerm  idx="-1"  idxOne="3"  idxTwo="25"  coef="-1.4915"/><qTerm  idx="-1"  idxOne="3"  idxTwo="26"  coef=".8468"/><qTerm  idx="-1"  idxOne="3"  idxTwo="28"  coef="-1.7887"/><qTerm  idx="-1"  idxOne="3"  idxTwo="32"  coef="1.0304"/><qTerm  idx="-1"  idxOne="3"  idxTwo="33"  coef="1.9399"/><qTerm  idx="-1"  idxOne="3"  idxTwo="34"  coef=".9152"/><qTerm  idx="-1"  idxOne="4"  idxTwo="6"  coef="-1.1281"/><qTerm  idx="-1"  idxOne="4"  idxTwo="7"  coef="1.3282"/><qTerm  idx="-1"  idxOne="4"  idxTwo="10"  coef="-1.4265"/><qTerm  idx="-1"  idxOne="4"  idxTwo="21"  coef="-1.2113"/><qTerm  idx="-1"  idxOne="4"  idxTwo="23"  coef="-.5204"/><qTerm  idx="-1"  idxOne="4"  idxTwo="24"  coef="1.3325"/><qTerm  idx="-1"  idxOne="4"  idxTwo="26"  coef="1.6025"/><qTerm  idx="-1"  idxOne="4"  idxTwo="27"  coef="-1.6032"/><qTerm  idx="-1"  idxOne="4"  idxTwo="29"  coef="1.12"/><qTerm  idx="-1"  idxOne="4"  idxTwo="30"  coef="1.1832"/><qTerm  idx="-1"  idxOne="4"  idxTwo="31"  coef=".6226"/><qTerm  idx="-1"  idxOne="4"  idxTwo="33"  coef=".9894"/><qTerm  idx="-1"  idxOne="4"  idxTwo="37"  coef="-1.5066"/><qTerm  idx="-1"  idxOne="4"  idxTwo="39"  coef=".4485"/><qTerm  idx="-1"  idxOne="5"  idxTwo="5"  coef="1.4912"/><qTerm  idx="-1"  idxOne="5"  idxTwo="7"  coef="-1.8396"/><qTerm  idx="-1"  idxOne="5"  idxTwo="8"  coef="-1.7826"/><qTerm  idx="-1"  idxOne="5"  idxTwo="9"  coef="1.3783"/><qTerm  idx="-1"  idxOne="5"  idxTwo="10"  coef=".3344"/><qTerm  idx="-1"  idxOne="5"  idxTwo="12"  coef="-.9856"/><qTerm  idx="-1"  idxOne="5"  idxTwo="14"  coef="-1.4041"/><qTerm  idx="-1"  idxOne="5"  idxTwo="16"  coef=".8928"/><qTerm  idx="-1"  idxOne="5"  idxTwo="18"  coef="1.5069"/><qTerm  idx="-1"  idxOne="5"  idxTwo="20"  coef=".4302"/><qTerm  idx="-1"  idxOne="5"  idxTwo="22"  coef="-.9135"/><qTerm  idx="-1"  idxOne="5"  idxTwo="24"  coef="-.4628"/><qTerm  idx="-1"  idxOne="5"  idxTwo="26"  coef="-1.0783"/><qTerm  idx="-1"  idxOne="5"  idxTwo="28"  coef="-4.37e-2"/><qTerm  idx="-1"  idxOne="5"  idxTwo="30"  coef="-.6235"/><qTerm  idx="-1"  idxOne="5"  idxTwo="34"  coef="-.6024"/><qTerm  idx="-1"  idxOne="5"  idxTwo="35"  coef="1.8676"/><qTerm  idx="-1"  idxOne="5"  idxTwo="37"  coef="-1.551"/><qTerm  idx="-1"  idxOne="6"  idxTwo="8"  coef="4.84e-2"/><qTerm  idx="-1"  idxOne="6"  idxTwo="9"  coef="-1.5901"/><qTerm  idx="-1"  idxOne="6"  idxTwo="10"  coef="7.46e-2"/><qTerm  idx="-1"  idxOne="6"  idxTwo="13"  coef="1.5061"/><qTerm  idx="-1"  idxOne="6"  idxTwo="14"  coef="1.0187"/><qTerm  idx="-1"  idxOne="6"  idxTwo="15"  coef="1.3691"/><qTerm  idx="-1"  idxOne="6"  idxTwo="17"  coef=".6791"/><qTerm  idx="-1"  idxOne="6"  idxTwo="20"  coef=".7245"/><qTerm  idx="-1"  idxOne="6"  idxTwo="21"  coef="-1.3775"/><qTerm  idx="-1"  idxOne="6"  idxTwo="22"  coef=".9468"/><qTerm  idx="-1"  idxOne="6"  idxTwo="23"  coef="1.7953"/><qTerm  idx="-1"  idxOne="6"  idxTwo="25"  coef="1.6639"/><qTerm  idx="-1"  idxOne="6"  idxTwo="26"  coef="-.6421"/><qTerm  idx="-1"  idxOne="6"  idxTwo="27"  coef="-.5871"/><qTerm  idx="-1"  idxOne="6"  idxTwo="30"  coef=".7634"/><qTerm  idx="-1"  idxOne="6"  idxTwo="31"  coef="-1.7527"/><qTerm  idx="-1"  idxOne="6"  idxTwo="32"  coef=".5499"/><qTerm  idx="-1"  idxOne="6"  idxTwo="33"  coef=".8952"/><qTerm  idx="-1"  idxOne="6"  idxTwo="34"  coef="-1.7089"/><qTerm  idx="-1"  idxOne="6"  idxTwo="35"  coef="1.1878"/><qTerm  idx="-1"  idxOne="7"  idxTwo="7"  coef="-.447"/><qTerm  idx="-1"  idxOne="7"  idxTwo="8"  coef="-1.2693"/><qTerm  idx="-1"  idxOne="7"  idxTwo="9"  coef=".1387"/><qTerm  idx="-1"  idxOne="7"  idxTwo="14"  coef="1.8249"/><qTerm  idx="-1"  idxOne="7"  idxTwo="18"  coef="-1.0092"/><qTerm  idx="-1"  idxOne="7"  idxTwo="19"  coef=".5469"/><qTerm  idx="-1"  idxOne="7"  idxTwo="22"  coef="-.5663"/><qTerm  idx="-1"  idxOne="7"  idxTwo="23"  coef="-.9062"/><qTerm  idx="-1"  idxOne="7"  idxTwo="24"  coef="1.2425"/><qTerm  idx="-1"  idxOne="7"  idxTwo="26"  coef="-.4472"/><qTerm  idx="-1"  idxOne="7"  idxTwo="29"  coef="-.795"/><qTerm  idx="-1"  idxOne="7"  idxTwo="30"  coef="-.7254"/><qTerm  idx="-1"  idxOne="7"  idxTwo="33"  coef=".9632"/><qTerm  idx="-1"  idxOne="7"  idxTwo="35"  coef="1.3764"/><qTerm  idx="-1"  idxOne="7"  idxTwo="36"  coef="-.3997"/><qTerm  idx="-1"  idxOne="7"  idxTwo="38"  coef="1.8695"/><qTerm  idx="-1"  idxOne="8"  idxTwo="9"  coef="-.1524"/><qTerm  idx="-1"  idxOne="8"  idxTwo="10"  coef=".2015"/><qTerm  idx="-1"  idxOne="8"  idxTwo="11"  coef="-.3172"/><qTerm  idx="-1"  idxOne="8"  idxTwo="12"  coef="-.7628"/><qTerm  idx="-1"  idxOne="8"  idxTwo="13"  coef="-1.9704"/><qTerm  idx="-1"  idxOne="8"  idxTwo="16"  coef="-.2543"/><qTerm  idx="-1"  idxOne="8"  idxTwo="17"  coef="1.3825"/><qTerm  idx="-1"  idxOne="8"  idxTwo="18"  coef="1.781"/><qTerm  idx="-1"  idxOne="8"  idxTwo="19"  coef="1.6226"/><qTerm  idx="-1"  idxOne="8"  idxTwo="20"  coef="-.2995"/><qTerm  idx="-1"  idxOne="8"  idxTwo="21"  coef=".3034"/><qTerm  idx="-1"  idxOne="8"  idxTwo="22"  coef="-1.8245"/><qTerm  idx="-1"  idxOne="8"  idxTwo="24"  coef="4.58e-2"/><qTerm  idx="-1"  idxOne="8"  idxTwo="25"  coef="-1.0946"/><qTerm  idx="-1"  idxOne="8"  idxTwo="26"  coef=".6644"/><qTerm  idx="-1"  idxOne="8"  idxTwo="27"  coef="2.4e-3"/><qTerm  idx="-1"  idxOne="8"  idxTwo="28"  coef="1.4748"/><qTerm  idx="-1"  idxOne="8"  idxTwo="31"  coef="1.8831"/><qTerm  idx="-1"  idxOne="8"  idxTwo="32"  coef="1.2241"/><qTerm  idx="-1"  idxOne="8"  idxTwo="33"  coef="1.2397"/><qTerm  idx="-1"  idxOne="8"  idxTwo="34"  coef=".7595"/><qTerm  idx="-1"  idxOne="8"  idxTwo="36"  coef="1.0375"/><qTerm  idx="-1"  idxOne="8"  idxTwo="37"  coef="-1.7502"/><qTerm  idx="-1"  idxOne="9"  idxTwo="9"  coef="1.8219"/><qTerm  idx="-1"  idxOne="9"  idxTwo="12"  coef="-.3523"/><qTerm  idx="-1"  idxOne="9"  idxTwo="13"  coef=".3519"/><qTerm  idx="-1"  idxOne="9"  idxTwo="16"  coef="1.2017"/><qTerm  idx="-1"  idxOne="9"  idxTwo="17"  coef="-.5516"/><qTerm  idx="-1"  idxOne="9"  idxTwo="20"  coef="-1.2152"/><qTerm  idx="-1"  idxOne="9"  idxTwo="21"  coef="-1.7309"/><qTerm  idx="-1"  idxOne="9"  idxTwo="22"  coef="1.1347"/><qTerm  idx="-1"  idxOne="9"  idxTwo="23"  coef="-1.1414"/><qTerm  idx="-1"  idxOne="9"  idxTwo="29"  coef="1.5142"/><qTerm  idx="-1"  idxOne="9"  idxTwo="30"  coef="-1.0957"/><qTerm  idx="-1"  idxOne="9"  idxTwo="32"  coef=".77"/><qTerm  idx="-1"  idxOne="9"  idxTwo="33"  coef="-1.4432"/><qTerm  idx="-1"  idxOne="9"  idxTwo="36"  coef="-.1921"/><qTerm  idx="-1"  idxOne="9"  idxTwo="38"  coef=".3851"/><qTerm  idx="-1"  idxOne="10"  idxTwo="14"  coef=".8064"/><qTerm  idx="-1"  idxOne="10"  idxTwo="15"  coef="7.28e-2"/><qTerm  idx="-1"  idxOne="10"  idxTwo="16"  coef="1.3587"/><qTerm  idx="-1"  idxOne="10"  idxTwo="18"  coef=".5832"/><qTerm  idx="-1"  idxOne="10"  idxTwo="19"  coef="-1.3353"/><qTerm  idx="-1"  idxOne="10"  idxTwo="22"  coef="-.549"/><qTerm  idx="-1"  idxOne="10"  idxTwo="26"  coef="-.745"/><qTerm  idx="-1"  idxOne="10"  idxTwo="28"  coef=".5978"/><qTerm  idx="-1"  idxOne="10"  idxTwo="34"  coef="1.8112"/><qTerm  idx="-1"  idxOne="10"  idxTwo="35"  coef="-.8022"/><qTerm  idx="-1"  idxOne="10"  idxTwo="37"  coef="1.4342"/><qTerm  idx="-1"  idxOne="10"  idxTwo="38"  coef="-.523"/><qTerm  idx="-1"  idxOne="10"  idxTwo="39"  coef="1.93e-2"/><qTerm  idx="-1"  idxOne="11"  idxTwo="12"  coef="-.305"/><qTerm  idx="-1"  idxOne="11"  idxTwo="14"  coef=".8119"/><qTerm  idx="-1"  idxOne="11"  idxTwo="15"  coef=".6144"/><qTerm  idx="-1"  idxOne="11"  idxTwo="17"  coef="-1.3285"/><qTerm  idx="-1"  idxOne="11"  idxTwo="18"  coef="-.7888"/><qTerm  idx="-1"  idxOne="11"  idxTwo="21"  coef="-1.2814"/><qTerm  idx="-1"  idxOne="11"  idxTwo="23"  coef=".7462"/><qTerm  idx="-1"  idxOne="11"  idxTwo="24"  coef="1.983"/><qTerm  idx="-1"  idxOne="11"  idxTwo="25"  coef="1.2e-3"/><qTerm  idx="-1"  idxOne="11"  idxTwo="26"  coef=".6686"/><qTerm  idx="-1"  idxOne="11"  idxTwo="28"  coef=".9768"/><qTerm  idx="-1"  idxOne="11"  idxTwo="29"  coef=".7584"/><qTerm  idx="-1"  idxOne="11"  idxTwo="30"  coef="-1.6157"/><qTerm  idx="-1"  idxOne="11"  idxTwo="34"  coef="1.3725"/><qTerm  idx="-1"  idxOne="11"  idxTwo="35"  coef="-1.819"/><qTerm  idx="-1"  idxOne="11"  idxTwo="36"  coef=".3987"/><qTerm  idx="-1"  idxOne="11"  idxTwo="37"  coef="1.8674"/><qTerm  idx="-1"  idxOne="12"  idxTwo="12"  coef="8.18e-2"/><qTerm  idx="-1"  idxOne="12"  idxTwo="13"  coef="1.5399"/><qTerm  idx="-1"  idxOne="12"  idxTwo="15"  coef="-1.5099"/><qTerm  idx="-1"  idxOne="12"  idxTwo="16"  coef="-1.0989"/><qTerm  idx="-1"  idxOne="12"  idxTwo="20"  coef="-1.5349"/><qTerm  idx="-1"  idxOne="12"  idxTwo="21"  coef=".5026"/><qTerm  idx="-1"  idxOne="12"  idxTwo="24"  coef="-.9678"/><qTerm  idx="-1"  idxOne="12"  idxTwo="27"  coef=".6391"/><qTerm  idx="-1"  idxOne="12"  idxTwo="28"  coef="1.571"/><qTerm  idx="-1"  idxOne="12"  idxTwo="29"  coef="1.2024"/><qTerm  idx="-1"  idxOne="12"  idxTwo="30"  coef="6.17e-2"/><qTerm  idx="-1"  idxOne="12"  idxTwo="32"  coef="-1.0938"/><qTerm  idx="-1"  idxOne="12"  idxTwo="34"  coef=".9604"/><qTerm  idx="-1"  idxOne="13"  idxTwo="16"  coef="-1.4978"/><qTerm  idx="-1"  idxOne="13"  idxTwo="22"  coef="-1.891"/><qTerm  idx="-1"  idxOne="13"  idxTwo="23"  coef=".1473"/><qTerm  idx="-1"  idxOne="13"  idxTwo="28"  coef="-.3356"/><qTerm  idx="-1"  idxOne="13"  idxTwo="29"  coef="1.0918"/><qTerm  idx="-1"  idxOne="13"  idxTwo="30"  coef="-1.7936"/><qTerm  idx="-1"  idxOne="13"  idxTwo="32"  coef="-1.2375"/><qTerm  idx="-1"  idxOne="13"  idxTwo="34"  coef=".6051"/><qTerm  idx="-1"  idxOne="13"  idxTwo="35"  coef="-.7076"/><qTerm  idx="-1"  idxOne="13"  idxTwo="36"  coef=".8322"/><qTerm  idx="-1"  idxOne="13"  idxTwo="37"  coef="-.1148"/><qTerm  idx="-1"  idxOne="13"  idxTwo="39"  coef="1.3463"/><qTerm  idx="-1"  idxOne="14"  idxTwo="16"  coef=".2362"/><qTerm  idx="-1"  idxOne="14"  idxTwo="19"  coef="-.6047"/><qTerm  idx="-1"  idxOne="14"  idxTwo="22"  coef="1.5566"/><qTerm  idx="-1"  idxOne="14"  idxTwo="24"  coef=".3849"/><qTerm  idx="-1"  idxOne="14"  idxTwo="25"  coef="-1.4109"/><qTerm  idx="-1"  idxOne="14"  idxTwo="26"  coef="1.3729"/><qTerm  idx="-1"  idxOne="14"  idxTwo="27"  coef="1.0785"/><qTerm  idx="-1"  idxOne="14"  idxTwo="29"  coef="-.737"/><qTerm  idx="-1"  idxOne="14"  idxTwo="32"  coef="-.2993"/><qTerm  idx="-1"  idxOne="14"  idxTwo="33"  coef="1.8991"/><qTerm  idx="-1"  idxOne="14"  idxTwo="34"  coef=".1204"/><qTerm  idx="-1"  idxOne="14"  idxTwo="35"  coef="1.3014"/><qTerm  idx="-1"  idxOne="14"  idxTwo="36"  coef=".2229"/><qTerm  idx="-1"  idxOne="14"  idxTwo="37"  coef="-3.91e-2"/><qTerm  idx="-1"  idxOne="14"  idxTwo="39"  coef=".8424"/><qTerm  idx="-1"  idxOne="15"  idxTwo="15"  coef="-1.3996"/><qTerm  idx="-1"  idxOne="15"  idxTwo="16"  coef="-.7085"/><qTerm  idx="-1"  idxOne="15"  idxTwo="17"  coef="1.851"/><qTerm  idx="-1"  idxOne="15"  idxTwo="19"  coef="-.3966"/><qTerm  idx="-1"  idxOne="15"  idxTwo="20"  coef=".1505"/><qTerm  idx="-1"  idxOne="15"  idxTwo="25"  coef="1.4608"/><qTerm  idx="-1"  idxOne="15"  idxTwo="26"  coef="-1.7122"/><qTerm  idx="-1"  idxOne="15"  idxTwo="28"  coef="-1.6446"/><qTerm  idx="-1"  idxOne="15"  idxTwo="29"  coef="1.519"/><qTerm  idx="-1"  idxOne="15"  idxTwo="32"  coef="1.9075"/><qTerm  idx="-1"  idxOne="15"  idxTwo="33"  coef="-1.7255"/><qTerm  idx="-1"  idxOne="15"  idxTwo="34"  coef="-.1832"/><qTerm  idx="-1"  idxOne="15"  idxTwo="35"  coef="-1.4683"/><qTerm  idx="-1"  idxOne="15"  idxTwo="37"  coef="-.8125"/><qTerm  idx="-1"  idxOne="15"  idxTwo="38"  coef="1.5125"/><qTerm  idx="-1"  idxOne="15"  idxTwo="39"  coef="-1.701"/><qTerm  idx="-1"  idxOne="16"  idxTwo="16"  coef="1.0772"/><qTerm  idx="-1"  idxOne="16"  idxTwo="17"  coef="-.9367"/><qTerm  idx="-1"  idxOne="16"  idxTwo="19"  coef="-1.019"/><qTerm  idx="-1"  idxOne="16"  idxTwo="21"  coef="-.7204"/><qTerm  idx="-1"  idxOne="16"  idxTwo="22"  coef="-.5379"/><qTerm  idx="-1"  idxOne="16"  idxTwo="23"  coef="1.3772"/><qTerm  idx="-1"  idxOne="16"  idxTwo="25"  coef=".6844"/><qTerm  idx="-1"  idxOne="16"  idxTwo="27"  coef=".5317"/><qTerm  idx="-1"  idxOne="16"  idxTwo="28"  coef=".1223"/><qTerm  idx="-1"  idxOne="16"  idxTwo="35"  coef="-1.909"/><qTerm  idx="-1"  idxOne="16"  idxTwo="36"  coef="-1.4118"/><qTerm  idx="-1"  idxOne="16"  idxTwo="37"  coef="1.8908"/><qTerm  idx="-1"  idxOne="16"  idxTwo="38"  coef="1.004"/><qTerm  idx="-1"  idxOne="16"  idxTwo="39"  coef="-1.6792"/><qTerm  idx="-1"  idxOne="17"  idxTwo="19"  coef="-1.343"/><qTerm  idx="-1"  idxOne="17"  idxTwo="20"  coef="-1.2651"/><qTerm  idx="-1"  idxOne="17"  idxTwo="21"  coef="-.5082"/><qTerm  idx="-1"  idxOne="17"  idxTwo="23"  coef="-.9083"/><qTerm  idx="-1"  idxOne="17"  idxTwo="26"  coef=".2222"/><qTerm  idx="-1"  idxOne="17"  idxTwo="27"  coef=".9001"/><qTerm  idx="-1"  idxOne="17"  idxTwo="29"  coef="-.1265"/><qTerm  idx="-1"  idxOne="17"  idxTwo="31"  coef="-1.9652"/><qTerm  idx="-1"  idxOne="17"  idxTwo="32"  coef="-.841"/><qTerm  idx="-1"  idxOne="17"  idxTwo="33"  coef=".4658"/><qTerm  idx="-1"  idxOne="17"  idxTwo="34"  coef=".3375"/><qTerm  idx="-1"  idxOne="17"  idxTwo="35"  coef="-1.588"/><qTerm  idx="-1"  idxOne="17"  idxTwo="37"  coef="-1.9439"/><qTerm  idx="-1"  idxOne="17"  idxTwo="38"  coef="1.565"/><qTerm  idx="-1"  idxOne="18"  idxTwo="18"  coef="-.873"/><qTerm  idx="-1"  idxOne="18"  idxTwo="19"  coef="-.5719"/><qTerm  idx="-1"  idxOne="18"  idxTwo="22"  coef="-.737"/><qTerm  idx="-1"  idxOne="18"  idxTwo="26"  coef=".6565"/><qTerm  idx="-1"  idxOne="18"  idxTwo="27"  coef="1.7347"/><qTerm  idx="-1"  idxOne="18"  idxTwo="31"  coef="1.5103"/><qTerm  idx="-1"  idxOne="18"  idxTwo="32"  coef="-.9868"/><qTerm  idx="-1"  idxOne="18"  idxTwo="33"  coef="-.2906"/><qTerm  idx="-1"  idxOne="18"  idxTwo="34"  coef=".4183"/><qTerm  idx="-1"  idxOne="18"  idxTwo="35"  coef="-1.3441"/><qTerm  idx="-1"  idxOne="18"  idxTwo="36"  coef=".7187"/><qTerm  idx="-1"  idxOne="18"  idxTwo="38"  coef="1.933"/><qTerm  idx="-1"  idxOne="18"  idxTwo="39"  coef="-1.0028"/><qTerm  idx="-1"  idxOne="19"  idxTwo="20"  coef="3.78e-2"/><qTerm  idx="-1"  idxOne="19"  idxTwo="21"  coef="-1.2841"/><qTerm  idx="-1"  idxOne="19"  idxTwo="22"  coef="-.5737"/><qTerm  idx="-1"  idxOne="19"  idxTwo="23"  coef="1.2594"/><qTerm  idx="-1"  idxOne="19"  idxTwo="24"  coef=".4892"/><qTerm  idx="-1"  idxOne="19"  idxTwo="27"  coef=".8296"/><qTerm  idx="-1"  idxOne="19"  idxTwo="28"  coef="-1.6857"/><qTerm  idx="-1"  idxOne="19"  idxTwo="30"  coef="1.6881"/><qTerm  idx="-1"  idxOne="19"  idxTwo="31"  coef=".1484"/><qTerm  idx="-1"  idxOne="19"  idxTwo="32"  coef=".9244"/><qTerm  idx="-1"  idxOne="19"  idxTwo="34"  coef="1.7578"/><qTerm  idx="-1"  idxOne="19"  idxTwo="35"  coef=".8547"/><qTerm  idx="-1"  idxOne="19"  idxTwo="36"  coef=".7057"/><qTerm  idx="-1"  idxOne="19"  idxTwo="37"  coef="1.7681"/><qTerm  idx="-1"  idxOne="19"  idxTwo="38"  coef=".538"/><qTerm  idx="-1"  idxOne="20"  idxTwo="20"  coef="-.8839"/><qTerm  idx="-1"  idxOne="20"  idxTwo="26"  coef="1.794"/><qTerm  idx="-1"  idxOne="20"  idxTwo="27"  coef="-.5814"/><qTerm  idx="-1"  idxOne="20"  idxTwo="28"  coef="-.6569"/><qTerm  idx="-1"  idxOne="20"  idxTwo="29"  coef=".5438"/><qTerm  idx="-1"  idxOne="20"  idxTwo="30"  coef="1.5956"/><qTerm  idx="-1"  idxOne="20"  idxTwo="35"  coef="1.8951"/><qTerm  idx="-1"  idxOne="20"  idxTwo="36"  coef="1.7629"/><qTerm  idx="-1"  idxOne="20"  idxTwo="37"  coef="1.9345"/><qTerm  idx="-1"  idxOne="20"  idxTwo="38"  coef="1.6677"/><qTerm  idx="-1"  idxOne="21"  idxTwo="22"  coef="1.2809"/><qTerm  idx="-1"  idxOne="21"  idxTwo="23"  coef="4.65e-2"/><qTerm  idx="-1"  idxOne="21"  idxTwo="25"  coef="-1.7677"/><qTerm  idx="-1"  idxOne="21"  idxTwo="28"  coef=".1138"/><qTerm  idx="-1"  idxOne="21"  idxTwo="29"  coef="1.7595"/><qTerm  idx="-1"  idxOne="21"  idxTwo="37"  coef="-1.3501"/><qTerm  idx="-1"  idxOne="21"  idxTwo="38"  coef="-.6617"/><qTerm  idx="-1"  idxOne="21"  idxTwo="39"  coef="-1.1355"/><qTerm  idx="-1"  idxOne="22"  idxTwo="22"  coef="-.2245"/><qTerm  idx="-1"  idxOne="22"  idxTwo="23"  coef=".5348"/><qTerm  idx="-1"  idxOne="22"  idxTwo="25"  coef="-1.4724"/><qTerm  idx="-1"  idxOne="22"  idxTwo="27"  coef=".8105"/><qTerm  idx="-1"  idxOne="22"  idxTwo="32"  coef="-.7247"/><qTerm  idx="-1"  idxOne="22"  idxTwo="33"  coef="1.4823"/><qTerm  idx="-1"  idxOne="22"  idxTwo="34"  coef="2.47e-2"/><qTerm  idx="-1"  idxOne="22"  idxTwo="35"  coef="-.2837"/><qTerm  idx="-1"  idxOne="22"  idxTwo="36"  coef="-1.7938"/><qTerm  idx="-1"  idxOne="22"  idxTwo="37"  coef=".5699"/><qTerm  idx="-1"  idxOne="23"  idxTwo="25"  coef="1.1987"/><qTerm  idx="-1"  idxOne="23"  idxTwo="29"  coef="1.241"/><qTerm  idx="-1"  idxOne="23"  idxTwo="30"  coef="-1.2338"/><qTerm  idx="-1"  idxOne="23"  idxTwo="31"  coef="-1.6159"/><qTerm  idx="-1"  idxOne="23"  idxTwo="32"  coef=".8654"/><qTerm  idx="-1"  idxOne="23"  idxTwo="35"  coef="-.931"/><qTerm  idx="-1"  idxOne="23"  idxTwo="36"  coef="1.5554"/><qTerm  idx="-1"  idxOne="23"  idxTwo="38"  coef="-1.149"/><qTerm  idx="-1"  idxOne="24"  idxTwo="24"  coef="-1.9481"/><qTerm  idx="-1"  idxOne="24"  idxTwo="27"  coef=".9062"/><qTerm  idx="-1"  idxOne="24"  idxTwo="28"  coef="-.365"/><qTerm  idx="-1"  idxOne="24"  idxTwo="29"  coef="1.1469"/><qTerm  idx="-1"  idxOne="24"  idxTwo="30"  coef="-1.8173"/><qTerm  idx="-1"  idxOne="24"  idxTwo="33"  coef=".8909"/><qTerm  idx="-1"  idxOne="24"  idxTwo="35"  coef=".852"/><qTerm  idx="-1"  idxOne="24"  idxTwo="36"  coef="-.5643"/><qTerm  idx="-1"  idxOne="24"  idxTwo="37"  coef=".8227"/><qTerm  idx="-1"  idxOne="25"  idxTwo="29"  coef="-1.6126"/><qTerm  idx="-1"  idxOne="25"  idxTwo="31"  coef="-.9233"/><qTerm  idx="-1"  idxOne="25"  idxTwo="32"  coef="-1.4332"/><qTerm  idx="-1"  idxOne="25"  idxTwo="38"  coef=".2322"/><qTerm  idx="-1"  idxOne="25"  idxTwo="39"  coef="-.5104"/><qTerm  idx="-1"  idxOne="26"  idxTwo="28"  coef="-.9176"/><qTerm  idx="-1"  idxOne="26"  idxTwo="29"  coef=".3266"/><qTerm  idx="-1"  idxOne="26"  idxTwo="30"  coef="1.6096"/><qTerm  idx="-1"  idxOne="26"  idxTwo="36"  coef="-.7353"/><qTerm  idx="-1"  idxOne="26"  idxTwo="37"  coef=".1415"/><qTerm  idx="-1"  idxOne="26"  idxTwo="38"  coef="-.6068"/><qTerm  idx="-1"  idxOne="27"  idxTwo="27"  coef="1.5874"/><qTerm  idx="-1"  idxOne="27"  idxTwo="29"  coef=".7569"/><qTerm  idx="-1"  idxOne="27"  idxTwo="30"  coef="-1.8807"/><qTerm  idx="-1"  idxOne="27"  idxTwo="32"  coef="-.6237"/><qTerm  idx="-1"  idxOne="27"  idxTwo="36"  coef="1.3629"/><qTerm  idx="-1"  idxOne="27"  idxTwo="37"  coef="1.5981"/><qTerm  idx="-1"  idxOne="27"  idxTwo="38"  coef="1.9838"/><qTerm  idx="-1"  idxOne="28"  idxTwo="33"  coef="1.1128"/><qTerm  idx="-1"  idxOne="28"  idxTwo="34"  coef=".2024"/><qTerm  idx="-1"  idxOne="28"  idxTwo="35"  coef=".2208"/><qTerm  idx="-1"  idxOne="29"  idxTwo="29"  coef="-1.8072"/><qTerm  idx="-1"  idxOne="29"  idxTwo="30"  coef="-1.4932"/><qTerm  idx="-1"  idxOne="29"  idxTwo="31"  coef="-.7529"/><qTerm  idx="-1"  idxOne="29"  idxTwo="35"  coef="-1.804"/><qTerm  idx="-1"  idxOne="29"  idxTwo="36"  coef="-.907"/><qTerm  idx="-1"  idxOne="29"  idxTwo="37"  coef="1.8823"/><qTerm  idx="-1"  idxOne="30"  idxTwo="33"  coef="1.2525"/><qTerm  idx="-1"  idxOne="30"  idxTwo="34"  coef=".424"/><qTerm  idx="-1"  idxOne="30"  idxTwo="36"  coef=".9008"/><qTerm  idx="-1"  idxOne="30"  idxTwo="37"  coef="1.3424"/><qTerm  idx="-1"  idxOne="31"  idxTwo="32"  coef="-.9687"/><qTerm  idx="-1"  idxOne="31"  idxTwo="33"  coef="1.7827"/><qTerm  idx="-1"  idxOne="31"  idxTwo="37"  coef="-1.3462"/><qTerm  idx="-1"  idxOne="32"  idxTwo="33"  coef="-1.7227"/><qTerm  idx="-1"  idxOne="32"  idxTwo="36"  coef="1.1466"/><qTerm  idx="-1"  idxOne="32"  idxTwo="37"  coef="-.659"/><qTerm  idx="-1"  idxOne="33"  idxTwo="36"  coef="-1.727"/><qTerm  idx="-1"  idxOne="33"  idxTwo="37"  coef="-.1865"/><qTerm  idx="-1"  idxOne="34"  idxTwo="35"  coef="-1.289"/><qTerm  idx="-1"  idxOne="34"  idxTwo="36"  coef="-.7503"/><qTerm  idx="-1"  idxOne="34"  idxTwo="37"  coef="-1.0046"/><qTerm  idx="-1"  idxOne="35"  idxTwo="36"  coef="1.564"/><qTerm  idx="-1"  idxOne="35"  idxTwo="37"  coef="1.5611"/><qTerm  idx="-1"  idxOne="36"  idxTwo="36"  coef="1.8037"/><qTerm  idx="-1"  idxOne="36"  idxTwo="38"  coef="1.5158"/><qTerm  idx="-1"  idxOne="36"  idxTwo="39"  coef=".4351"/><qTerm  idx="-1"  idxOne="37"  idxTwo="38"  coef="1.1126"/><qTerm  idx="-1"  idxOne="38"  idxTwo="38"  coef="-1.5611"/></quadraticCoefficients></instanceData></osil>
